15

C          0.95805       -0.05782       -0.07306
C          2.47667       -0.05100       -0.08165
C          3.01443        0.85404       -1.18438
C          4.53566        0.86289       -1.19832
O          5.00603        1.71493       -2.23362
H          0.58467       -0.71178        0.72178
H          0.56360       -0.42218       -1.02682
H          0.56368        0.94835        0.10048
H          2.84252       -1.07395       -0.22673
H          2.84321        0.28931        0.89373
H          2.64561        1.87894       -1.05130
H          2.64014        0.52592       -2.16213
H          4.93803       -0.14210       -1.36483
H          4.93040        1.23649       -0.24776
H          4.66634        1.36749       -3.07463
